3176 3066 2976 2919 2852 2792 2723 2636 2530 2497 2418 2333 2280 2256 2190 2164 2101 2079 2043 1991 1971 1938 1918 1870 1830 1790 1771 1756 1737 1716 1692 1673 1648 1626 1610 1588 1564 1548 1537 1518 1506 1482 1465 1456 1439 1436 1425 1419 1407 1396 1382 1372 1358 1352 1343 1336 1325 1319 1313 1308 1302 1298 1295 1291 1285 1280 1280 1275 1271 1268 1265 1257 1253 1250 1248 1248 1241 1241 1241 1238 1236 1233 1232 1231 1229 1227 1224 1224 1222 1221 1220 1220 1219 1218 1217 1216 1216 1212 1212 1212 1211 1207 1206 1205 1199 1188 1186 1185 1183 1180 1180 1180 1178 1176 1176 1176 1174 1172 1172 1170 1170 1169 1169 1169 1169 1169 1169 1169 1169 1168 1168 1168 1168 1168 1168 1168 1168 1168 1168 1168 1168 1168 1168 1168 1168 1168 1168 1168 1168 1168 1168 1168 1168 1168 1168 1168 1168 1168 1168 1168 1168 1168 1168 1168 1168 1168 1168 1168 1168 1168 1168 1168 1168 1168 1168 1168 1168 1168 1168 1168 1168 1168 1168 1168 1168 1168 1168 1168 1168 1168 1168 1168 1168 1168 1168 1168 1168 1168 1168 1168 1168 1168 1168 1168 1168 1168 1168 1168 1168 1168 1168 1168 1168 1168 1168 1168 1168 1168 1168 1168 1168 1168 1168 1168 1168 1168 1168 1168 1168 1168 1168 1168 1168 1168 1168 1168 1168 1168 1168 1168 1168 1168 1168 1168 1168 1168 1168 1168 1168 1168 1168 1168 1168 1168 1168 1168 1168 1168 1168 1168 1168 1168 1168 1168 1168 1168 1168 1168 1168 1168 1168 1168 1168 1168 1168 1168 1168 1168 1168 1168 1168 1168 1168 1168 1168 1168 1168 1168 1168 1168 1168 1168 1168 1168 1168 1168 1168 1168 1168 1168 1168 1168 1168 1168 1168 1168 1168 1168 1168 1168 1168 1168 1168 1168 1168 1168 1168 1168 1168 1168 1168 1168 1168 1168 1168 1168 1168 1168 1168 1168 1168 1168 1168 1168 1168 1168 1168 1168 1168 1168 1168 1168 1168 1168 1168 1168 1168 1168 1168 1168 1168 1168 1168 1168 1168 1168 1168 1168 1168 1168 1168 1168 1168 1168 1168 1168 1168 1168 1168 1168 1168 1168 1168 1168 1168 1168 1168 1168 1168 1168 1168 1168 1168 1168 1168 1168 1168 1168 1168 1168 1168 1168 1168 1168 1168 1168 1168 1168 1168 1168 1168 1168 1168 1168 1168 1168 1168 1168 1168 1168 1168 1168 1168 1168 1168 1168 1168 1168 1168 1168 1168 1168 1168 1168 1168 1168 1168 1168 1168 1168 1168 1168 1168 1168 1168 1168 1168 1168 1168 1168 1168 1168 1168 1168 1168 1168 1168 1168 1168 1168 1168 1168 1168 1168 1168 1168 1168 1168 1168 1168 1168 1168 1168 1168 1168 1168 1168 1168 1168 1168 1168 1168 1168 1168 1168 1168 1168 1168 1168 1168 1168 1168 1168 1168 1168 1168 1168 1168 1168 1168 1168 1168 1168 1168 1168 1168 1168 1168 1168 1168 1168 1168 1168 1168 1168 1168 1168 1168 1168 1168 1168 1168 1168 1168 1168 1168 1168 1168 1168 1168 1168 1168 1168 1168 1168 1168 1168 1168 1168 1168 1168 1168 1168 1168 1168 1168 1168 1168 1168 1168 1168 1168 1168 1168 1168 1168 1168 1168 1168 1168 1168 1168 1168 1168 1168 1168 1168 1168 1168 1168 1168 1168 1168 1168 1168 1168 1168 1168 1168 1168 1168 1168 1168 1168 1168 1168 1168 1168 1168 1168 1168 1168 1168 1168 1168 1168 1168 1168 1168 1168 1168 1168 1168 1168 1168 1168 1168 1168 1168 1168 1168 1168 1168 1168 1168 1168 1168 1168 1168 1168 1168 1168 1168 1168 1168 1168 1168 1168 1168 1168 1168 1168 1168 1168 1168 1168 1168 1168 1168 1168 1168 1168 1168 1168 1168 1168 1168 1168 1168 1168 1168 1168 1168 1168 1168 1168 1168 1168 1168 1168 1168 1168 1168 1168 1168 1168 1168 1168 1168 1168 1168 1168 1168 1168 1168 1168 1168 1168 1168 1168 1168 1168 1168 1168 1168 1168 1168 1168 1168 1168 1168 1168 1168 1168 1168 1168 1167 1167 1167 1167 1167 1167 1167 1167 1167 1167 1167 1167 1167 1167 1166 1166 1166 1166 1166 1166 1164 1164 1164 1164 1164 1164 1164 1164 1160 1160 1160 1160 1160 1159 1159 1159 1159 1159 1159 1159 1159 1159 1159 1159 1159 1159 1159 1159 1159 1159 1159 1159 1159 1159 1159 1159 1159 1159 1159 1159 1159 1159 1159 1159 1159 1159 1159 1159 1159 1159 1159 1159 1159 1159 1159 1159 1159 1159 1159 1159 1159 1159 1159 1159 1159 1159 1159 1159 1159 1159 1159 1159 1159 1159 1159 1159 1159 1159 1159 1159 1159 1159 1159 1159 1159 1159 1159 1159 1159 1159 1159 1159 1159 1159 1159 1159 1159 1159 1159 1159 1159 1159 1159 1159 1159 1159 1159 1159 1159 1159 1159 1159 1159 1159 1159 1159 1159 1159 1159 1159 1159 1159 1159 1159 1159 1159 1159 1159 1159 1159 1159 1159 1159 1159 1159 1159 1159 1159 1159 1159 1159 1159 1159 1159 1159 1159 1159 1159 1159 1159 1159 1159 1159 1159 1159 1159 1159 1159 1159 1159 1159 1159 1159 1159 1159 1159 1159 1159 1159 1159 1159 1159 1159 1159 1159 1159 1159 1159 1159 1159 1159 1159 1159 1159 1159 1159 1159 1159 1159 1159 1159 1159 1159 1159 1159 1159 1159 1159 1159 1159 1159 1159 1159 1159 1159 1159 1159 1159 1159 1159 1159 1159 1159 1159 1159 1159 1159 1159 1159 1159 1159 1159 1159 1159 1159 1159 1159 1159 1159 1159 1159 1159 1159 1159 1159 1159 1159 1159 1159 1159 1159 1159 1159 1159 1159 1159 1159 1159 1159 1159 1159 1159 1159 1159 1159 1159 1159 1159 1159 1159 1159 1159 1159 1159 1159 1159 1159 1159 1159 1159 1159 1159 1159 1159 1159 1159 1159 1159 1159 1159 1159 1159 1159 1159 1159 1159 1159 1159 1159 1159 1159 1159 1159 1159 1159 1159 1159 1159 1159 1159 1159 1159 1159 1159 1159 1159 1159 1159 1159 1159 1159 1159 1159 1159 1159 1159 1159 1159 1159 1159 1159 1159 1159 1159 1159 1159 1159 1159 1159 1159 1159 1159 1159 1159 1159 1159 1159 1159 1159 1159 1159 1159 1159 1159 1159 1159 1159 1159 1159 1159 1159 1159 1159 1159 1159 1159 1159 1159 1159 1159 1159 1159 1159 1159 1159 1159 1159 1159 1159 1159 1159 1159 1159 1159 1159 1159 1159 1159 1159 1159 1159 1159 1159 1159 1159 1159 1159 1159 1159 1159 1159 1159 1159 1159 1159 1159 1159 1159 1159 1159 1159 1159 1159 1159 1159 1159 1159 1159 1159 1159 1159 1159 1159 1159 1159 1159 1159 1159 1159 1159 1159 1159 1159 1159 1159 1159 1159 1159 1159 1159 1159 1159 1159 1159 1159 1159 1159 1159 1159 1159 1159 1159 1159 1159 1159 1159 1159 1159 1159 1159 1159 1159 1159 1159 1159 1159 1159 1159 1159 1159 1159 1159 1159 1159 1159 1159 1159 1159 1159 1159 1159 1159 1159 1159 1159 1159 1159 1159 1159 1159 1159 1159 1159 1159 1159 1159 1159 1159 1159 1159 1159 1159 1159 1159 1159 1159 1159 1159 1159 1159 1159 1159 1159 1159 1159 1159 1159 1159 1159 1159 1159 1159 1159 1159 1159 1159 1159 1159 1159 1159 1159 1159 1159 1159 1159 1159 1159 1159 1159 1159 1159 1159 1159 1159 1159 1159 1159 1159 1159 1159 1159 1159 1159 1159 1159 1159 1159 1159 1159 1159 1159 1159 1159 1159 1159 1159 1159 1159 1159 1159 1159 1159 1159 1159 1159 1159 1159 1159 1159 1159 1159 1159 1159 1159 1159 1159 1159 1159 1159 1159 1159 1159 1159 1159 1159 1159 1159 1159 1159 1159 1159 1159 1159 1159 1159 1159 1159 1159 1159 1159 1159 1159 1159 1159 1159 1159 1159 1159 1159 1159 1159 1159 1159 1159 1159 1159 1159 1159 1159 1159 1159 1159 1159 1159 1159 1159 1159 1159 1159 1159 1159 1159 1159 1159 1159 1159 1159 1159 1159 1159 1159 1159 1159 1159 1159 1159 1159 1159 1159 1159 1159 1159 1159 1159 1159 1159 1159 1159 1159 1159 1159 1159 1159 1159 1159 1159 1159 1159 1159 1159 1159 1159 1159 1159 1159 1159 1159 1159 1159 1159 1159 1159 1159 1159 1159 1159 1159 1159 1159 1159 1159 1159 1159 1159 1159 1159 1159 1159 1159 1159 1159 1159 1159 1159 1159 1159 1159 1159 1159 1159 1159 1159 1159 1159 1159 1159 1159 1159 1159 1159 1159 1159 1159 1159 1159 1159 1159 1159 1159 1159 1159 1159 1159 1159 1159 1159 1159 1159 1159 1159 1159 1159 1159 1159 1159 1159 1159 1159 1159 1159 1159 1159 1159 1159 1159 1159 1159 1159 1159 1159 1159 1159 1159 1159 1159 1159 1159 1159 1159 1159 1159 1159 1159 1159 1159 1159 1159 1159 1159 1159 1159 1159 1159 1159 1159 1159 1159 1159 1159 1159 1159 1159 1159 1159 1159 1159 1159 1159 1159 1159 1159 1159 1159 1159 1159 1159 1159 1159 1159 1159 1159 1159 1159 1159 1159 1159 1159 1159 1159 1159 1159 1159 1159 1159 1159 1159 1159 1159 1159 1159 1159 1159 1159 1159 1159 1159 1159 1159 1159 1159 1159 1159 1159 1159 1159 1159 1159 1159 1159 1159 1159 1159 1159 1159 1159 1159 1159 1159 1159 1159 1159 1159 1159 1159 1159 1159 1159 1159 1159 1159 1159 1159 1159 1159 1159 1159 1159 1159 1159 1159 1159 1159 1159 1159 1159 1159 1159 1159 1159 1159 1159 1159 1159 1159 1159 1159 1159 1159 1159 1159 1159 1159 1159 1159 1159 1159 1159 1159 1159 1159 1159 1159 1159 1159 1159 1159 1159 1159 1159 1159 1159 1159 1159 1159 1159 1159 1159 1159 1159 1159 1159 1159 1159 1159 1159 1159 1159 1159 1159 1159 1159 1159 1159 1159 1159 1159 1159 1159 1159 1159 1159 1159 1159 1159 1159 1159 1159 1159 1159 1159 1159 1159 1159 1159 1159 1159 1159 1159 1159 1159 1159 1159 1159 1159 1159 1159 1159 1159 1159 1159 1159 1159 1159 1159 1159 1159 1159 1159 1159 1159 1159 1159 1159 1159 1159 1159 1159 1159 1159 1159 1159 1159 1159 1159 1159 1159 1159 1159 1159 1159 1159 1159 1159 1159 1159 1159 1159 1159 1159 1159 1159 1159 1159 1159 1159 1159 1159 1159 1159 1159 1159 1159 1159 1159 1159 1159 1159 1159 1159 1159 1159 1159 1159 1159 1159 1159 1159 1159 1159 1159 1159 1159 1159 1159 1159 1159 1159 1159 1159 1159 1159 1159 1159 1159 1159 1159 1159 1159 1159 1159 1159 1159 1159 1159 1159 1159 1159 1159 1159 1159 1159 1159 1159 1159 1159 1159 1159 1159 1159 1159 1159 1159 1159 1159 1159 1159 1159 1159 1159 1159 1159 1159 1159 1159 1159 1159 1159 1159 1159 1159 1159 1159 1159 1159 1159 1159 1159 1159 1159 1159 1159 1159 1159 1159 1159 1159 1159 1159 1159 1159 1159 1159 1159 1159 1159 1159 1159 1159 1159 1159 1159 1159 1159 1159 1159 1159 1159 1159 1159 1159 1159 1159 1159 1159 1159 1159 1159 1159 1159 1159 1159 1159 1159 1159 1159 1159 1159 1159 1159 1159 1159 1159 1159 1159 1159 1159 1159 1159 1159 1159 1159 1159 1159 1159 1159 1159 1159 1159 1159 1159 1159 1159 1159 1159 1159 1159 1159 1159 1159 1159 1159 1159 1159 1159 1159 1159 1159 1159 1159 1159 1159 1159 1159 1159 1159 1159 1159 1159 1159 1159 1159 1159 1159 1159 1159 1159 1159 1159 1159 1159 1159 1159 1159 1159 1159 1159 1159 1159 1159 1159 1159 1159 1159 1159 1159 1159 1159 1159 1159 1159 1159 1159 1159 1159 1159 1159 1159 1159 1159 1159 1159 1159 1159 1159 1159 1159 1159 1159 1159 1159 1159 1159 1159 1159 1159 1159 1159 1159 1159 1159 1159 1159 1159 1159 1159 1159 1159 1159 1159 1159 1159 1159 1159 1159 
3606 3408 3275 3164 3066 2979 2911 2841 2766 2692 2617 2545 2477 2406 2334 2277 2227 2182 2139 2098 2065 2031 1995 1961 1928 1897 1859 1818 1787 1761 1742 1725 1702 1681 1660 1638 1615 1594 1572 1554 1540 1521 1501 1484 1468 1457 1449 1437 1428 1419 1407 1395 1382 1370 1358 1349 1342 1333 1326 1320 1314 1308 1301 1298 1294 1290 1287 1283 1279 1274 1270 1270 1268 1264 1255 1251 1249 1248 1247 1241 1240 1239 1237 1235 1232 1231 1230 1227 1226 1224 1222 1221 1220 1220 1218 1217 1217 1216 1215 1215 1211 1211 1211 1210 1206 1205 1203 1197 1187 1185 1182 1182 1179 1179 1177 1177 1175 1175 1175 1173 1170 1169 1169 1169 1169 1169 1169 1169 1169 1168 1168 1168 1168 1168 1168 1168 1168 1168 1168 1168 1168 1168 1168 1168 1168 1168 1168 1168 1168 1168 1168 1168 1168 1168 1168 1168 1168 1168 1168 1168 1168 1168 1168 1168 1168 1168 1168 1168 1168 1168 1168 1168 1168 1168 1168 1168 1168 1168 1168 1168 1168 1168 1168 1168 1168 1168 1168 1168 1168 1168 1168 1168 1168 1168 1168 1168 1168 1168 1168 1168 1168 1168 1168 1168 1168 1168 1168 1168 1168 1168 1168 1168 1168 1168 1168 1168 1168 1168 1168 1168 1168 1168 1168 1168 1168 1168 1168 1168 1168 1168 1168 1168 1168 1168 1168 1168 1168 1168 1168 1168 1168 1168 1168 1168 1168 1168 1168 1168 1168 1168 1168 1168 1168 1168 1168 1168 1168 1168 1168 1168 1168 1168 1168 1168 1168 1168 1168 1168 1168 1168 1168 1168 1168 1168 1168 1168 1168 1168 1168 1168 1168 1168 1168 1168 1168 1168 1168 1168 1168 1168 1168 1168 1168 1168 1168 1168 1168 1168 1168 1168 1168 1168 1168 1168 1168 1168 1168 1168 1168 1168 1168 1168 1168 1168 1168 1168 1168 1168 1168 1168 1168 1168 1168 1168 1168 1168 1168 1168 1168 1168 1168 1168 1168 1168 1168 1168 1168 1168 1168 1168 1168 1168 1168 1168 1168 1168 1168 1168 1168 1168 1168 1168 1168 1168 1168 1168 1168 1168 1168 1168 1168 1168 1168 1168 1168 1168 1168 1168 1168 1168 1168 1168 1168 1168 1168 1168 1168 1168 1168 1168 1168 1168 1168 1168 1168 1168 1168 1168 1168 1168 1168 1168 1168 1168 1168 1168 1168 1168 1168 1168 1168 1168 1168 1168 1168 1168 1168 1168 1168 1168 1168 1168 1168 1168 1168 1168 1168 1168 1168 1168 1168 1168 1168 1168 1168 1168 1168 1168 1168 1168 1168 1168 1168 1168 1168 1168 1168 1168 1168 1168 1168 1168 1168 1168 1168 1168 1168 1168 1168 1168 1168 1168 1168 1168 1168 1168 1168 1168 1168 1168 1168 1168 1168 1168 1168 1168 1168 1168 1168 1168 1168 1168 1168 1168 1168 1168 1168 1168 1168 1168 1168 1168 1168 1168 1168 1168 1168 1168 1168 1168 1168 1168 1168 1168 1168 1168 1168 1168 1168 1168 1168 1168 1168 1168 1168 1168 1168 1168 1168 1168 1168 1168 1168 1168 1168 1168 1168 1168 1168 1168 1168 1168 1168 1168 1168 1168 1168 1168 1168 1168 1168 1168 1168 1168 1168 1168 1168 1168 1168 1168 1168 1168 1168 1168 1168 1168 1168 1168 1168 1168 1168 1168 1168 1168 1168 1168 1168 1168 1168 1168 1168 1168 1168 1168 1168 1168 1168 1168 1168 1168 1168 1168 1168 1168 1168 1168 1168 1168 1168 1168 1168 1168 1168 1168 1168 1168 1168 1168 1168 1168 1168 1168 1168 1168 1168 1168 1168 1168 1168 1168 1168 1168 1168 1168 1168 1168 1168 1168 1168 1168 1168 1168 1168 1168 1168 1168 1168 1168 1168 1168 1168 1168 1168 1168 1168 1168 1168 1168 1168 1168 1168 1168 1168 1168 1168 1168 1168 1168 1168 1168 1168 1168 1168 1168 1168 1168 1168 1168 1168 1168 1168 1168 1168 1168 1168 1168 1168 1168 1168 1168 1168 1168 1168 1168 1168 1168 1168 1168 1168 1168 1168 1168 1168 1168 1168 1168 1168 1168 1168 1168 1168 1168 1168 1168 1168 1168 1167 1167 1167 1167 1167 1167 1167 1167 1167 1167 1167 1167 1167 1167 1166 1166 1166 1166 1166 1166 1165 1165 1165 1165 1164 1164 1164 1164 1163 1163 1163 1160 1160 1159 1159 1159 1159 1159 1159 1159 1159 1159 1159 1159 1159 1159 1159 1159 1159 1159 1159 1159 1159 1159 1159 1159 1159 1159 1159 1159 1159 1159 1159 1159 1159 1159 1159 1159 1159 1159 1159 1159 1159 1159 1159 1159 1159 1159 1159 1159 1159 1159 1159 1159 1159 1159 1159 1159 1159 1159 1159 1159 1159 1159 1159 1159 1159 1159 1159 1159 1159 1159 1159 1159 1159 1159 1159 1159 1159 1159 1159 1159 1159 1159 1159 1159 1159 1159 1159 1159 1159 1159 1159 1159 1159 1159 1159 1159 1159 1159 1159 1159 1159 1159 1159 1159 1159 1159 1159 1159 1159 1159 1159 1159 1159 1159 1159 1159 1159 1159 1159 1159 1159 1159 1159 1159 1159 1159 1159 1159 1159 1159 1159 1159 1159 1159 1159 1159 1159 1159 1159 1159 1159 1159 1159 1159 1159 1159 1159 1159 1159 1159 1159 1159 1159 1159 1159 1159 1159 1159 1159 1159 1159 1159 1159 1159 1159 1159 1159 1159 1159 1159 1159 1159 1159 1159 1159 1159 1159 1159 1159 1159 1159 1159 1159 1159 1159 1159 1159 1159 1159 1159 1159 1159 1159 1159 1159 1159 1159 1159 1159 1159 1159 1159 1159 1159 1159 1159 1159 1159 1159 1159 1159 1159 1159 1159 1159 1159 1159 1159 1159 1159 1159 1159 1159 1159 1159 1159 1159 1159 1159 1159 1159 1159 1159 1159 1159 1159 1159 1159 1159 1159 1159 1159 1159 1159 1159 1159 1159 1159 1159 1159 1159 1159 1159 1159 1159 1159 1159 1159 1159 1159 1159 1159 1159 1159 1159 1159 1159 1159 1159 1159 1159 1159 1159 1159 1159 1159 1159 1159 1159 1159 1159 1159 1159 1159 1159 1159 1159 1159 1159 1159 1159 1159 1159 1159 1159 1159 1159 1159 1159 1159 1159 1159 1159 1159 1159 1159 1159 1159 1159 1159 1159 1159 1159 1159 1159 1159 1159 1159 1159 1159 1159 1159 1159 1159 1159 1159 1159 1159 1159 1159 1159 1159 1159 1159 1159 1159 1159 1159 1159 1159 1159 1159 1159 1159 1159 1159 1159 1159 1159 1159 1159 1159 1159 1159 1159 1159 1159 1159 1159 1159 1159 1159 1159 1159 1159 1159 1159 1159 1159 1159 1159 1159 1159 1159 1159 1159 1159 1159 1159 1159 1159 1159 1159 1159 1159 1159 1159 1159 1159 1159 1159 1159 1159 1159 1159 1159 1159 1159 1159 1159 1159 1159 1159 1159 1159 1159 1159 1159 1159 1159 1159 1159 1159 1159 1159 1159 1159 1159 1159 1159 1159 1159 1159 1159 1159 1159 1159 1159 1159 1159 1159 1159 1159 1159 1159 1159 1159 1159 1159 1159 1159 1159 1159 1159 1159 1159 1159 1159 1159 1159 1159 1159 1159 1159 1159 1159 1159 1159 1159 1159 1159 1159 1159 1159 1159 1159 1159 1159 1159 1159 1159 1159 1159 1159 1159 1159 1159 1159 1159 1159 1159 1159 1159 1159 1159 1159 1159 1159 1159 1159 1159 1159 1159 1159 1159 1159 1159 1159 1159 1159 1159 1159 1159 1159 1159 1159 1159 1159 1159 1159 1159 1159 1159 1159 1159 1159 1159 1159 1159 1159 1159 1159 1159 1159 1159 1159 1159 1159 1159 1159 1159 1159 1159 1159 1159 1159 1159 1159 1159 1159 1159 1159 1159 1159 1159 1159 1159 1159 1159 1159 1159 1159 1159 1159 1159 1159 1159 1159 1159 1159 1159 1159 1159 1159 1159 1159 1159 1159 1159 1159 1159 1159 1159 1159 1159 1159 1159 1159 1159 1159 1159 1159 1159 1159 1159 1159 1159 1159 1159 1159 1159 1159 1159 1159 1159 1159 1159 1159 1159 1159 1159 1159 1159 1159 1159 1159 1159 1159 1159 1159 1159 1159 1159 1159 1159 1159 1159 1159 1159 1159 1159 1159 1159 1159 1159 1159 1159 1159 1159 1159 1159 1159 1159 1159 1159 1159 1159 1159 1159 1159 1159 1159 1159 1159 1159 1159 1159 1159 1159 1159 1159 1159 1159 1159 1159 1159 1159 1159 1159 1159 1159 1159 1159 1159 1159 1159 1159 1159 1159 1159 1159 1159 1159 1159 1159 1159 1159 1159 1159 1159 1159 1159 1159 1159 1159 1159 1159 1159 1159 1159 1159 1159 1159 1159 1159 1159 1159 1159 1159 1159 1159 1159 1159 1159 1159 1159 1159 1159 1159 1159 1159 1159 1159 1159 1159 1159 1159 1159 1159 1159 1159 1159 1159 1159 1159 1159 1159 1159 1159 1159 1159 1159 1159 1159 1159 1159 1159 1159 1159 1159 1159 1159 1159 1159 1159 1159 1159 1159 1159 1159 1159 1159 1159 1159 1159 1159 1159 1159 1159 1159 1159 1159 1159 1159 1159 1159 1159 1159 1159 1159 1159 1159 1159 1159 1159 1159 1159 1159 1159 1159 1159 1159 1159 1159 1159 1159 1159 1159 1159 1159 1159 1159 1159 1159 1159 1159 1159 1159 1159 1159 1159 1159 1159 1159 1159 1159 1159 1159 1159 1159 1159 1159 1159 1159 1159 1159 1159 1159 1159 1159 1159 1159 1159 1159 1159 1159 1159 1159 1159 1159 1159 1159 1159 1159 1159 1159 1159 1159 1159 1159 1159 1159 1159 1159 1159 1159 1159 1159 1159 1159 1159 1159 1159 1159 1159 1159 1159 1159 1159 1159 1159 1159 1159 1159 1159 1159 1159 1159 1159 1159 1159 1159 1159 1159 1159 1159 1159 1159 1159 1159 1159 1159 1159 1159 1159 1159 1159 1159 1159 1159 1159 1159 1159 1159 1159 1159 1159 1159 1159 1159 1159 1159 1159 1159 1159 1159 1159 1159 1159 1159 1159 1159 1159 1159 1159 1159 1159 1159 1159 1159 1159 1159 1159 1159 1159 1159 1159 1159 1159 1159 1159 1159 1159 1159 1159 1159 1159 1159 1159 1159 1159 1159 1159 1159 1159 1159 1159 1159 1159 1159 1159 1159 1159 1159 1159 1159 1159 1159 1159 1159 1159 1159 1159 1159 1159 1159 1159 1159 1159 1159 1159 1159 1159 1159 1159 1159 1159 1159 1159 1159 1159 1159 1159 1159 1159 1159 1159 1159 1159 1159 1159 1159 1159 1159 1159 1159 1159 1159 1159 1159 1159 1159 1159 1159 1159 1159 1159 1159 1159 1159 1159 1159 1159 1159 1159 1159 1159 1159 1159 1159 1159 1159 1159 1159 1159 1159 1159 1159 1159 1159 1159 1159 1159 1159 1159 1159 1159 1159 1159 1159 1159 1159 1159 1159 1159 1159 1159 1159 1159 1159 1159 1159 1159 1159 1159 1159 1159 1159 1159 1159 1159 1159 1159 1159 1159 1159 1159 1159 1159 1159 1159 1159 1159 1159 1159 1159 1159 1159 1159 1159 1159 1159 1159 1159 1159 1159 1159 1159 1159 1159 1159 1159 1159 1159 1159 1159 1159 1159 1159 1159 1159 1159 1159 1159 1159 1159 1159 1159 1159 1159 1159 1159 1159 1159 1159 1159 1159 1159 1159 1159 1159 1159 1159 1159 1159 1159 1159 1159 1159 1159 1159 1159 1159 1159 1159 1159 1159 1159 1159 1159 1159 1159 1159 1159 1159 1159 1159 1159 1159 1159 1159 1159 1159 1159 1159 1159 1159 1159 1159 1159 1159 1159 1159 1159 1159 1159 1159 1159 1159 1159 1159 1159 1159 1159 1159 1159 1159 1159 1159 1159 1159 1159 1159 1159 1159 1159 1159 1159 1159 1159 1159 1159 1159 1159 1159 1159 1159 1159 1159 1159 1159 1159 1159 1159 1159 1159 1159 1159 1159 1159 1159 1159 1159 1159 1159 1159 1159 1159 1159 1159 1159 1159 1159 1159 1159 1159 1159 1159 1159 1159 1159 1159 1159 1159 1159 1159 1159 1159 1159 1159 1159 1159 1159 1159 1159 1159 1159 1159 1159 1159 1159 1159 1159 1159 1159 1159 1159 1159 1159 1159 1159 1159 1159 1159 1159 1159 1159 1159 1159 1159 1159 1159 1159 1159 1159 1159 1159 1159 1159 1159 1159 1159 